p tw 656 3424
1 33
2 34
3 35
4 36
5 37
6 38
7 39
8 40
9 41
10 42
11 43
12 44
13 45
14 46
15 47
16 48
17 49
18 50
19 51
20 52
21 53
22 54
23 55
24 56
25 57
26 58
27 59
28 60
29 61
30 62
31 63
32 64
33 71
33 72
33 73
33 74
33 75
33 76
34 143
34 152
34 159
34 167
34 171
34 173
35 78
35 82
35 93
35 94
35 95
35 96
36 97
36 106
36 112
36 113
36 114
36 115
37 74
37 86
37 129
37 136
37 162
37 165
38 66
38 88
38 112
38 126
38 127
38 128
39 84
39 99
39 118
39 138
39 140
39 141
40 68
40 108
40 135
40 142
40 143
40 144
41 65
41 66
41 67
41 68
41 69
41 70
42 100
42 110
42 126
42 162
42 163
42 164
43 109
43 142
43 145
43 148
43 149
43 150
44 77
44 88
44 89
44 90
44 91
44 92
45 133
45 148
45 151
45 154
45 155
45 156
46 93
46 116
46 122
46 123
46 124
46 125
47 67
47 98
47 102
47 129
47 130
47 131
48 75
48 120
48 130
48 160
48 174
48 176
49 116
49 117
49 118
49 119
49 120
49 121
50 65
50 77
50 78
50 79
50 80
50 81
51 83
51 113
51 117
51 132
51 133
51 134
52 94
52 107
52 122
52 135
52 136
52 137
53 73
53 89
53 103
53 132
53 138
53 139
54 69
54 127
54 155
54 163
54 174
54 175
55 154
55 157
55 158
55 159
55 160
55 161
56 106
56 107
56 108
56 109
56 110
56 111
57 82
57 83
57 84
57 85
57 86
57 87
58 104
58 119
58 123
58 151
58 152
58 153
59 114
59 146
59 158
59 166
59 169
59 170
60 80
60 85
60 90
60 145
60 146
60 147
61 72
61 79
61 102
61 103
61 104
61 105
62 71
62 97
62 98
62 99
62 100
62 101
63 91
63 149
63 157
63 166
63 167
63 168
64 95
64 124
64 140
64 169
64 171
64 172
65 66
65 67
65 68
65 69
65 70
65 77
65 78
65 79
65 80
65 81
66 67
66 68
66 69
66 70
66 88
66 112
66 126
66 127
66 128
67 68
67 69
67 70
67 98
67 102
67 129
67 130
67 131
68 69
68 70
68 108
68 135
68 142
68 143
68 144
69 70
69 127
69 155
69 163
69 174
69 175
70 177
70 178
70 179
70 180
70 181
70 182
71 72
71 73
71 74
71 75
71 76
71 97
71 98
71 99
71 100
71 101
72 73
72 74
72 75
72 76
72 79
72 102
72 103
72 104
72 105
73 74
73 75
73 76
73 89
73 103
73 132
73 138
73 139
74 75
74 76
74 86
74 129
74 136
74 162
74 165
75 76
75 120
75 130
75 160
75 174
75 176
76 183
76 184
76 185
76 186
76 187
76 188
77 78
77 79
77 80
77 81
77 88
77 89
77 90
77 91
77 92
78 79
78 80
78 81
78 82
78 93
78 94
78 95
78 96
79 80
79 81
79 102
79 103
79 104
79 105
80 81
80 85
80 90
80 145
80 146
80 147
81 177
81 189
81 190
81 191
81 192
81 193
82 83
82 84
82 85
82 86
82 87
82 93
82 94
82 95
82 96
83 84
83 85
83 86
83 87
83 113
83 117
83 132
83 133
83 134
84 85
84 86
84 87
84 99
84 118
84 138
84 140
84 141
85 86
85 87
85 90
85 145
85 146
85 147
86 87
86 129
86 136
86 162
86 165
87 194
87 195
87 196
87 197
87 198
87 199
88 89
88 90
88 91
88 92
88 112
88 126
88 127
88 128
89 90
89 91
89 92
89 103
89 132
89 138
89 139
90 91
90 92
90 145
90 146
90 147
91 92
91 149
91 157
91 166
91 167
91 168
92 189
92 200
92 201
92 202
92 203
92 204
93 94
93 95
93 96
93 116
93 122
93 123
93 124
93 125
94 95
94 96
94 107
94 122
94 135
94 136
94 137
95 96
95 124
95 140
95 169
95 171
95 172
96 190
96 194
96 205
96 206
96 207
96 208
97 98
97 99
97 100
97 101
97 106
97 112
97 113
97 114
97 115
98 99
98 100
98 101
98 102
98 129
98 130
98 131
99 100
99 101
99 118
99 138
99 140
99 141
100 101
100 110
100 126
100 162
100 163
100 164
101 183
101 209
101 210
101 211
101 212
101 213
102 103
102 104
102 105
102 129
102 130
102 131
103 104
103 105
103 132
103 138
103 139
104 105
104 119
104 123
104 151
104 152
104 153
105 184
105 191
105 214
105 215
105 216
105 217
106 107
106 108
106 109
106 110
106 111
106 112
106 113
106 114
106 115
107 108
107 109
107 110
107 111
107 122
107 135
107 136
107 137
108 109
108 110
108 111
108 135
108 142
108 143
108 144
109 110
109 111
109 142
109 145
109 148
109 149
109 150
110 111
110 126
110 162
110 163
110 164
111 218
111 219
111 220
111 221
111 222
111 223
112 113
112 114
112 115
112 126
112 127
112 128
113 114
113 115
113 117
113 132
113 133
113 134
114 115
114 146
114 158
114 166
114 169
114 170
115 209
115 218
115 224
115 225
115 226
115 227
116 117
116 118
116 119
116 120
116 121
116 122
116 123
116 124
116 125
117 118
117 119
117 120
117 121
117 132
117 133
117 134
118 119
118 120
118 121
118 138
118 140
118 141
119 120
119 121
119 123
119 151
119 152
119 153
120 121
120 130
120 160
120 174
120 176
121 228
121 229
121 230
121 231
121 232
121 233
122 123
122 124
122 125
122 135
122 136
122 137
123 124
123 125
123 151
123 152
123 153
124 125
124 140
124 169
124 171
124 172
125 205
125 228
125 234
125 235
125 236
125 237
126 127
126 128
126 162
126 163
126 164
127 128
127 155
127 163
127 174
127 175
128 178
128 200
128 224
128 238
128 239
128 240
129 130
129 131
129 136
129 162
129 165
130 131
130 160
130 174
130 176
131 179
131 210
131 214
131 241
131 242
131 243
132 133
132 134
132 138
132 139
133 134
133 148
133 151
133 154
133 155
133 156
134 195
134 225
134 229
134 244
134 245
134 246
135 136
135 137
135 142
135 143
135 144
136 137
136 162
136 165
137 206
137 219
137 234
137 247
137 248
137 249
138 139
138 140
138 141
139 185
139 201
139 215
139 244
139 250
139 251
140 141
140 169
140 171
140 172
141 196
141 211
141 230
141 250
141 252
141 253
142 143
142 144
142 145
142 148
142 149
142 150
143 144
143 152
143 159
143 167
143 171
143 173
144 180
144 220
144 247
144 254
144 255
144 256
145 146
145 147
145 148
145 149
145 150
146 147
146 158
146 166
146 169
146 170
147 192
147 197
147 202
147 257
147 258
147 259
148 149
148 150
148 151
148 154
148 155
148 156
149 150
149 157
149 166
149 167
149 168
150 221
150 254
150 257
150 260
150 261
150 262
151 152
151 153
151 154
151 155
151 156
152 153
152 159
152 167
152 171
152 173
153 216
153 231
153 235
153 263
153 264
153 265
154 155
154 156
154 157
154 158
154 159
154 160
154 161
155 156
155 163
155 174
155 175
156 245
156 260
156 263
156 266
156 267
156 268
157 158
157 159
157 160
157 161
157 166
157 167
157 168
158 159
158 160
158 161
158 166
158 169
158 170
159 160
159 161
159 167
159 171
159 173
160 161
160 174
160 176
161 266
161 269
161 270
161 271
161 272
161 273
162 163
162 164
162 165
163 164
163 174
163 175
164 212
164 222
164 238
164 274
164 275
164 276
165 186
165 198
165 241
165 248
165 274
165 277
166 167
166 168
166 169
166 170
167 168
167 171
167 173
168 203
168 261
168 269
168 278
168 279
168 280
169 170
169 171
169 172
170 226
170 258
170 270
170 278
170 281
170 282
171 172
171 173
172 207
172 236
172 252
172 281
172 283
172 284
173 255
173 264
173 271
173 279
173 283
173 285
174 175
174 176
175 181
175 239
175 267
175 275
175 286
175 287
176 187
176 232
176 242
176 272
176 286
176 288
177 178
177 179
177 180
177 181
177 182
177 189
177 190
177 191
177 192
177 193
178 179
178 180
178 181
178 182
178 200
178 224
178 238
178 239
178 240
179 180
179 181
179 182
179 210
179 214
179 241
179 242
179 243
180 181
180 182
180 220
180 247
180 254
180 255
180 256
181 182
181 239
181 267
181 275
181 286
181 287
182 289
182 290
182 291
182 292
182 293
182 294
183 184
183 185
183 186
183 187
183 188
183 209
183 210
183 211
183 212
183 213
184 185
184 186
184 187
184 188
184 191
184 214
184 215
184 216
184 217
185 186
185 187
185 188
185 201
185 215
185 244
185 250
185 251
186 187
186 188
186 198
186 241
186 248
186 274
186 277
187 188
187 232
187 242
187 272
187 286
187 288
188 295
188 296
188 297
188 298
188 299
188 300
189 190
189 191
189 192
189 193
189 200
189 201
189 202
189 203
189 204
190 191
190 192
190 193
190 194
190 205
190 206
190 207
190 208
191 192
191 193
191 214
191 215
191 216
191 217
192 193
192 197
192 202
192 257
192 258
192 259
193 289
193 301
193 302
193 303
193 304
193 305
194 195
194 196
194 197
194 198
194 199
194 205
194 206
194 207
194 208
195 196
195 197
195 198
195 199
195 225
195 229
195 244
195 245
195 246
196 197
196 198
196 199
196 211
196 230
196 250
196 252
196 253
197 198
197 199
197 202
197 257
197 258
197 259
198 199
198 241
198 248
198 274
198 277
199 306
199 307
199 308
199 309
199 310
199 311
200 201
200 202
200 203
200 204
200 224
200 238
200 239
200 240
201 202
201 203
201 204
201 215
201 244
201 250
201 251
202 203
202 204
202 257
202 258
202 259
203 204
203 261
203 269
203 278
203 279
203 280
204 301
204 312
204 313
204 314
204 315
204 316
205 206
205 207
205 208
205 228
205 234
205 235
205 236
205 237
206 207
206 208
206 219
206 234
206 247
206 248
206 249
207 208
207 236
207 252
207 281
207 283
207 284
208 302
208 306
208 317
208 318
208 319
208 320
209 210
209 211
209 212
209 213
209 218
209 224
209 225
209 226
209 227
210 211
210 212
210 213
210 214
210 241
210 242
210 243
211 212
211 213
211 230
211 250
211 252
211 253
212 213
212 222
212 238
212 274
212 275
212 276
213 295
213 321
213 322
213 323
213 324
213 325
214 215
214 216
214 217
214 241
214 242
214 243
215 216
215 217
215 244
215 250
215 251
216 217
216 231
216 235
216 263
216 264
216 265
217 296
217 303
217 326
217 327
217 328
217 329
218 219
218 220
218 221
218 222
218 223
218 224
218 225
218 226
218 227
219 220
219 221
219 222
219 223
219 234
219 247
219 248
219 249
220 221
220 222
220 223
220 247
220 254
220 255
220 256
221 222
221 223
221 254
221 257
221 260
221 261
221 262
222 223
222 238
222 274
222 275
222 276
223 330
223 331
223 332
223 333
223 334
223 335
224 225
224 226
224 227
224 238
224 239
224 240
225 226
225 227
225 229
225 244
225 245
225 246
226 227
226 258
226 270
226 278
226 281
226 282
227 321
227 330
227 336
227 337
227 338
227 339
228 229
228 230
228 231
228 232
228 233
228 234
228 235
228 236
228 237
229 230
229 231
229 232
229 233
229 244
229 245
229 246
230 231
230 232
230 233
230 250
230 252
230 253
231 232
231 233
231 235
231 263
231 264
231 265
232 233
232 242
232 272
232 286
232 288
233 340
233 341
233 342
233 343
233 344
233 345
234 235
234 236
234 237
234 247
234 248
234 249
235 236
235 237
235 263
235 264
235 265
236 237
236 252
236 281
236 283
236 284
237 317
237 340
237 346
237 347
237 348
237 349
238 239
238 240
238 274
238 275
238 276
239 240
239 267
239 275
239 286
239 287
240 290
240 312
240 336
240 350
240 351
240 352
241 242
241 243
241 248
241 274
241 277
242 243
242 272
242 286
242 288
243 291
243 322
243 326
243 353
243 354
243 355
244 245
244 246
244 250
244 251
245 246
245 260
245 263
245 266
245 267
245 268
246 307
246 337
246 341
246 356
246 357
246 358
247 248
247 249
247 254
247 255
247 256
248 249
248 274
248 277
249 318
249 331
249 346
249 359
249 360
249 361
250 251
250 252
250 253
251 297
251 313
251 327
251 356
251 362
251 363
252 253
252 281
252 283
252 284
253 308
253 323
253 342
253 362
253 364
253 365
254 255
254 256
254 257
254 260
254 261
254 262
255 256
255 264
255 271
255 279
255 283
255 285
256 292
256 332
256 359
256 366
256 367
256 368
257 258
257 259
257 260
257 261
257 262
258 259
258 270
258 278
258 281
258 282
259 304
259 309
259 314
259 369
259 370
259 371
260 261
260 262
260 263
260 266
260 267
260 268
261 262
261 269
261 278
261 279
261 280
262 333
262 366
262 369
262 372
262 373
262 374
263 264
263 265
263 266
263 267
263 268
264 265
264 271
264 279
264 283
264 285
265 328
265 343
265 347
265 375
265 376
265 377
266 267
266 268
266 269
266 270
266 271
266 272
266 273
267 268
267 275
267 286
267 287
268 357
268 372
268 375
268 378
268 379
268 380
269 270
269 271
269 272
269 273
269 278
269 279
269 280
270 271
270 272
270 273
270 278
270 281
270 282
271 272
271 273
271 279
271 283
271 285
272 273
272 286
272 288
273 378
273 381
273 382
273 383
273 384
273 385
274 275
274 276
274 277
275 276
275 286
275 287
276 324
276 334
276 350
276 386
276 387
276 388
277 298
277 310
277 353
277 360
277 386
277 389
278 279
278 280
278 281
278 282
279 280
279 283
279 285
280 315
280 373
280 381
280 390
280 391
280 392
281 282
281 283
281 284
282 338
282 370
282 382
282 390
282 393
282 394
283 284
283 285
284 319
284 348
284 364
284 393
284 395
284 396
285 367
285 376
285 383
285 391
285 395
285 397
286 287
286 288
287 293
287 351
287 379
287 387
287 398
287 399
288 299
288 344
288 354
288 384
288 398
288 400
289 290
289 291
289 292
289 293
289 294
289 301
289 302
289 303
289 304
289 305
290 291
290 292
290 293
290 294
290 312
290 336
290 350
290 351
290 352
291 292
291 293
291 294
291 322
291 326
291 353
291 354
291 355
292 293
292 294
292 332
292 359
292 366
292 367
292 368
293 294
293 351
293 379
293 387
293 398
293 399
294 401
294 402
294 403
294 404
294 405
294 406
295 296
295 297
295 298
295 299
295 300
295 321
295 322
295 323
295 324
295 325
296 297
296 298
296 299
296 300
296 303
296 326
296 327
296 328
296 329
297 298
297 299
297 300
297 313
297 327
297 356
297 362
297 363
298 299
298 300
298 310
298 353
298 360
298 386
298 389
299 300
299 344
299 354
299 384
299 398
299 400
300 407
300 408
300 409
300 410
300 411
300 412
301 302
301 303
301 304
301 305
301 312
301 313
301 314
301 315
301 316
302 303
302 304
302 305
302 306
302 317
302 318
302 319
302 320
303 304
303 305
303 326
303 327
303 328
303 329
304 305
304 309
304 314
304 369
304 370
304 371
305 401
305 413
305 414
305 415
305 416
305 417
306 307
306 308
306 309
306 310
306 311
306 317
306 318
306 319
306 320
307 308
307 309
307 310
307 311
307 337
307 341
307 356
307 357
307 358
308 309
308 310
308 311
308 323
308 342
308 362
308 364
308 365
309 310
309 311
309 314
309 369
309 370
309 371
310 311
310 353
310 360
310 386
310 389
311 418
311 419
311 420
311 421
311 422
311 423
312 313
312 314
312 315
312 316
312 336
312 350
312 351
312 352
313 314
313 315
313 316
313 327
313 356
313 362
313 363
314 315
314 316
314 369
314 370
314 371
315 316
315 373
315 381
315 390
315 391
315 392
316 413
316 424
316 425
316 426
316 427
316 428
317 318
317 319
317 320
317 340
317 346
317 347
317 348
317 349
318 319
318 320
318 331
318 346
318 359
318 360
318 361
319 320
319 348
319 364
319 393
319 395
319 396
320 414
320 418
320 429
320 430
320 431
320 432
321 322
321 323
321 324
321 325
321 330
321 336
321 337
321 338
321 339
322 323
322 324
322 325
322 326
322 353
322 354
322 355
323 324
323 325
323 342
323 362
323 364
323 365
324 325
324 334
324 350
324 386
324 387
324 388
325 407
325 433
325 434
325 435
325 436
325 437
326 327
326 328
326 329
326 353
326 354
326 355
327 328
327 329
327 356
327 362
327 363
328 329
328 343
328 347
328 375
328 376
328 377
329 408
329 415
329 438
329 439
329 440
329 441
330 331
330 332
330 333
330 334
330 335
330 336
330 337
330 338
330 339
331 332
331 333
331 334
331 335
331 346
331 359
331 360
331 361
332 333
332 334
332 335
332 359
332 366
332 367
332 368
333 334
333 335
333 366
333 369
333 372
333 373
333 374
334 335
334 350
334 386
334 387
334 388
335 442
335 443
335 444
335 445
335 446
335 447
336 337
336 338
336 339
336 350
336 351
336 352
337 338
337 339
337 341
337 356
337 357
337 358
338 339
338 370
338 382
338 390
338 393
338 394
339 433
339 442
339 448
339 449
339 450
339 451
340 341
340 342
340 343
340 344
340 345
340 346
340 347
340 348
340 349
341 342
341 343
341 344
341 345
341 356
341 357
341 358
342 343
342 344
342 345
342 362
342 364
342 365
343 344
343 345
343 347
343 375
343 376
343 377
344 345
344 354
344 384
344 398
344 400
345 452
345 453
345 454
345 455
345 456
345 457
346 347
346 348
346 349
346 359
346 360
346 361
347 348
347 349
347 375
347 376
347 377
348 349
348 364
348 393
348 395
348 396
349 429
349 452
349 458
349 459
349 460
349 461
350 351
350 352
350 386
350 387
350 388
351 352
351 379
351 387
351 398
351 399
352 402
352 424
352 448
352 462
352 463
352 464
353 354
353 355
353 360
353 386
353 389
354 355
354 384
354 398
354 400
355 403
355 434
355 438
355 465
355 466
355 467
356 357
356 358
356 362
356 363
357 358
357 372
357 375
357 378
357 379
357 380
358 419
358 449
358 453
358 468
358 469
358 470
359 360
359 361
359 366
359 367
359 368
360 361
360 386
360 389
361 430
361 443
361 458
361 471
361 472
361 473
362 363
362 364
362 365
363 409
363 425
363 439
363 468
363 474
363 475
364 365
364 393
364 395
364 396
365 420
365 435
365 454
365 474
365 476
365 477
366 367
366 368
366 369
366 372
366 373
366 374
367 368
367 376
367 383
367 391
367 395
367 397
368 404
368 444
368 471
368 478
368 479
368 480
369 370
369 371
369 372
369 373
369 374
370 371
370 382
370 390
370 393
370 394
371 416
371 421
371 426
371 481
371 482
371 483
372 373
372 374
372 375
372 378
372 379
372 380
373 374
373 381
373 390
373 391
373 392
374 445
374 478
374 481
374 484
374 485
374 486
375 376
375 377
375 378
375 379
375 380
376 377
376 383
376 391
376 395
376 397
377 440
377 455
377 459
377 487
377 488
377 489
378 379
378 380
378 381
378 382
378 383
378 384
378 385
379 380
379 387
379 398
379 399
380 469
380 484
380 487
380 490
380 491
380 492
381 382
381 383
381 384
381 385
381 390
381 391
381 392
382 383
382 384
382 385
382 390
382 393
382 394
383 384
383 385
383 391
383 395
383 397
384 385
384 398
384 400
385 490
385 493
385 494
385 495
385 496
385 497
386 387
386 388
386 389
387 388
387 398
387 399
388 436
388 446
388 462
388 498
388 499
388 500
389 410
389 422
389 465
389 472
389 498
389 501
390 391
390 392
390 393
390 394
391 392
391 395
391 397
392 427
392 485
392 493
392 502
392 503
392 504
393 394
393 395
393 396
394 450
394 482
394 494
394 502
394 505
394 506
395 396
395 397
396 431
396 460
396 476
396 505
396 507
396 508
397 479
397 488
397 495
397 503
397 507
397 509
398 399
398 400
399 405
399 463
399 491
399 499
399 510
399 511
400 411
400 456
400 466
400 496
400 510
400 512
401 402
401 403
401 404
401 405
401 406
401 413
401 414
401 415
401 416
401 417
402 403
402 404
402 405
402 406
402 424
402 448
402 462
402 463
402 464
403 404
403 405
403 406
403 434
403 438
403 465
403 466
403 467
404 405
404 406
404 444
404 471
404 478
404 479
404 480
405 406
405 463
405 491
405 499
405 510
405 511
406 513
406 514
406 515
406 516
406 517
406 518
407 408
407 409
407 410
407 411
407 412
407 433
407 434
407 435
407 436
407 437
408 409
408 410
408 411
408 412
408 415
408 438
408 439
408 440
408 441
409 410
409 411
409 412
409 425
409 439
409 468
409 474
409 475
410 411
410 412
410 422
410 465
410 472
410 498
410 501
411 412
411 456
411 466
411 496
411 510
411 512
412 519
412 520
412 521
412 522
412 523
412 524
413 414
413 415
413 416
413 417
413 424
413 425
413 426
413 427
413 428
414 415
414 416
414 417
414 418
414 429
414 430
414 431
414 432
415 416
415 417
415 438
415 439
415 440
415 441
416 417
416 421
416 426
416 481
416 482
416 483
417 513
417 525
417 526
417 527
417 528
417 529
418 419
418 420
418 421
418 422
418 423
418 429
418 430
418 431
418 432
419 420
419 421
419 422
419 423
419 449
419 453
419 468
419 469
419 470
420 421
420 422
420 423
420 435
420 454
420 474
420 476
420 477
421 422
421 423
421 426
421 481
421 482
421 483
422 423
422 465
422 472
422 498
422 501
423 530
423 531
423 532
423 533
423 534
423 535
424 425
424 426
424 427
424 428
424 448
424 462
424 463
424 464
425 426
425 427
425 428
425 439
425 468
425 474
425 475
426 427
426 428
426 481
426 482
426 483
427 428
427 485
427 493
427 502
427 503
427 504
428 525
428 536
428 537
428 538
428 539
428 540
429 430
429 431
429 432
429 452
429 458
429 459
429 460
429 461
430 431
430 432
430 443
430 458
430 471
430 472
430 473
431 432
431 460
431 476
431 505
431 507
431 508
432 526
432 530
432 541
432 542
432 543
432 544
433 434
433 435
433 436
433 437
433 442
433 448
433 449
433 450
433 451
434 435
434 436
434 437
434 438
434 465
434 466
434 467
435 436
435 437
435 454
435 474
435 476
435 477
436 437
436 446
436 462
436 498
436 499
436 500
437 519
437 545
437 546
437 547
437 548
437 549
438 439
438 440
438 441
438 465
438 466
438 467
439 440
439 441
439 468
439 474
439 475
440 441
440 455
440 459
440 487
440 488
440 489
441 520
441 527
441 550
441 551
441 552
441 553
442 443
442 444
442 445
442 446
442 447
442 448
442 449
442 450
442 451
443 444
443 445
443 446
443 447
443 458
443 471
443 472
443 473
444 445
444 446
444 447
444 471
444 478
444 479
444 480
445 446
445 447
445 478
445 481
445 484
445 485
445 486
446 447
446 462
446 498
446 499
446 500
447 554
447 555
447 556
447 557
447 558
447 559
448 449
448 450
448 451
448 462
448 463
448 464
449 450
449 451
449 453
449 468
449 469
449 470
450 451
450 482
450 494
450 502
450 505
450 506
451 545
451 554
451 560
451 561
451 562
451 563
452 453
452 454
452 455
452 456
452 457
452 458
452 459
452 460
452 461
453 454
453 455
453 456
453 457
453 468
453 469
453 470
454 455
454 456
454 457
454 474
454 476
454 477
455 456
455 457
455 459
455 487
455 488
455 489
456 457
456 466
456 496
456 510
456 512
457 564
457 565
457 566
457 567
457 568
457 569
458 459
458 460
458 461
458 471
458 472
458 473
459 460
459 461
459 487
459 488
459 489
460 461
460 476
460 505
460 507
460 508
461 541
461 564
461 570
461 571
461 572
461 573
462 463
462 464
462 498
462 499
462 500
463 464
463 491
463 499
463 510
463 511
464 514
464 536
464 560
464 574
464 575
464 576
465 466
465 467
465 472
465 498
465 501
466 467
466 496
466 510
466 512
467 515
467 546
467 550
467 577
467 578
467 579
468 469
468 470
468 474
468 475
469 470
469 484
469 487
469 490
469 491
469 492
470 531
470 561
470 565
470 580
470 581
470 582
471 472
471 473
471 478
471 479
471 480
472 473
472 498
472 501
473 542
473 555
473 570
473 583
473 584
473 585
474 475
474 476
474 477
475 521
475 537
475 551
475 580
475 586
475 587
476 477
476 505
476 507
476 508
477 532
477 547
477 566
477 586
477 588
477 589
478 479
478 480
478 481
478 484
478 485
478 486
479 480
479 488
479 495
479 503
479 507
479 509
480 516
480 556
480 583
480 590
480 591
480 592
481 482
481 483
481 484
481 485
481 486
482 483
482 494
482 502
482 505
482 506
483 528
483 533
483 538
483 593
483 594
483 595
484 485
484 486
484 487
484 490
484 491
484 492
485 486
485 493
485 502
485 503
485 504
486 557
486 590
486 593
486 596
486 597
486 598
487 488
487 489
487 490
487 491
487 492
488 489
488 495
488 503
488 507
488 509
489 552
489 567
489 571
489 599
489 600
489 601
490 491
490 492
490 493
490 494
490 495
490 496
490 497
491 492
491 499
491 510
491 511
492 581
492 596
492 599
492 602
492 603
492 604
493 494
493 495
493 496
493 497
493 502
493 503
493 504
494 495
494 496
494 497
494 502
494 505
494 506
495 496
495 497
495 503
495 507
495 509
496 497
496 510
496 512
497 602
497 605
497 606
497 607
497 608
497 609
498 499
498 500
498 501
499 500
499 510
499 511
500 548
500 558
500 574
500 610
500 611
500 612
501 522
501 534
501 577
501 584
501 610
501 613
502 503
502 504
502 505
502 506
503 504
503 507
503 509
504 539
504 597
504 605
504 614
504 615
504 616
505 506
505 507
505 508
506 562
506 594
506 606
506 614
506 617
506 618
507 508
507 509
508 543
508 572
508 588
508 617
508 619
508 620
509 591
509 600
509 607
509 615
509 619
509 621
510 511
510 512
511 517
511 575
511 603
511 611
511 622
511 623
512 523
512 568
512 578
512 608
512 622
512 624
513 514
513 515
513 516
513 517
513 518
513 525
513 526
513 527
513 528
513 529
514 515
514 516
514 517
514 518
514 536
514 560
514 574
514 575
514 576
515 516
515 517
515 518
515 546
515 550
515 577
515 578
515 579
516 517
516 518
516 556
516 583
516 590
516 591
516 592
517 518
517 575
517 603
517 611
517 622
517 623
518 648
519 520
519 521
519 522
519 523
519 524
519 545
519 546
519 547
519 548
519 549
520 521
520 522
520 523
520 524
520 527
520 550
520 551
520 552
520 553
521 522
521 523
521 524
521 537
521 551
521 580
521 586
521 587
522 523
522 524
522 534
522 577
522 584
522 610
522 613
523 524
523 568
523 578
523 608
523 622
523 624
524 656
525 526
525 527
525 528
525 529
525 536
525 537
525 538
525 539
525 540
526 527
526 528
526 529
526 530
526 541
526 542
526 543
526 544
527 528
527 529
527 550
527 551
527 552
527 553
528 529
528 533
528 538
528 593
528 594
528 595
529 639
530 531
530 532
530 533
530 534
530 535
530 541
530 542
530 543
530 544
531 532
531 533
531 534
531 535
531 561
531 565
531 580
531 581
531 582
532 533
532 534
532 535
532 547
532 566
532 586
532 588
532 589
533 534
533 535
533 538
533 593
533 594
533 595
534 535
534 577
534 584
534 610
534 613
535 632
536 537
536 538
536 539
536 540
536 560
536 574
536 575
536 576
537 538
537 539
537 540
537 551
537 580
537 586
537 587
538 539
538 540
538 593
538 594
538 595
539 540
539 597
539 605
539 614
539 615
539 616
540 645
541 542
541 543
541 544
541 564
541 570
541 571
541 572
541 573
542 543
542 544
542 555
542 570
542 583
542 584
542 585
543 544
543 572
543 588
543 617
543 619
543 620
544 654
545 546
545 547
545 548
545 549
545 554
545 560
545 561
545 562
545 563
546 547
546 548
546 549
546 550
546 577
546 578
546 579
547 548
547 549
547 566
547 586
547 588
547 589
548 549
548 558
548 574
548 610
548 611
548 612
549 627
550 551
550 552
550 553
550 577
550 578
550 579
551 552
551 553
551 580
551 586
551 587
552 553
552 567
552 571
552 599
552 600
552 601
553 628
554 555
554 556
554 557
554 558
554 559
554 560
554 561
554 562
554 563
555 556
555 557
555 558
555 559
555 570
555 583
555 584
555 585
556 557
556 558
556 559
556 583
556 590
556 591
556 592
557 558
557 559
557 590
557 593
557 596
557 597
557 598
558 559
558 574
558 610
558 611
558 612
559 633
560 561
560 562
560 563
560 574
560 575
560 576
561 562
561 563
561 565
561 580
561 581
561 582
562 563
562 594
562 606
562 614
562 617
562 618
563 653
564 565
564 566
564 567
564 568
564 569
564 570
564 571
564 572
564 573
565 566
565 567
565 568
565 569
565 580
565 581
565 582
566 567
566 568
566 569
566 586
566 588
566 589
567 568
567 569
567 571
567 599
567 600
567 601
568 569
568 578
568 608
568 622
568 624
569 640
570 571
570 572
570 573
570 583
570 584
570 585
571 572
571 573
571 599
571 600
571 601
572 573
572 588
572 617
572 619
572 620
573 643
574 575
574 576
574 610
574 611
574 612
575 576
575 603
575 611
575 622
575 623
576 651
577 578
577 579
577 584
577 610
577 613
578 579
578 608
578 622
578 624
579 642
580 581
580 582
580 586
580 587
581 582
581 596
581 599
581 602
581 603
581 604
582 638
583 584
583 585
583 590
583 591
583 592
584 585
584 610
584 613
585 637
586 587
586 588
586 589
587 636
588 589
588 617
588 619
588 620
589 650
590 591
590 592
590 593
590 596
590 597
590 598
591 592
591 600
591 607
591 615
591 619
591 621
592 649
593 594
593 595
593 596
593 597
593 598
594 595
594 606
594 614
594 617
594 618
595 629
596 597
596 598
596 599
596 602
596 603
596 604
597 598
597 605
597 614
597 615
597 616
598 646
599 600
599 601
599 602
599 603
599 604
600 601
600 607
600 615
600 619
600 621
601 631
602 603
602 604
602 605
602 606
602 607
602 608
602 609
603 604
603 611
603 622
603 623
604 644
605 606
605 607
605 608
605 609
605 614
605 615
605 616
606 607
606 608
606 609
606 614
606 617
606 618
607 608
607 609
607 615
607 619
607 621
608 609
608 622
608 624
609 634
610 611
610 612
610 613
611 612
611 622
611 623
612 647
613 652
614 615
614 616
614 617
614 618
615 616
615 619
615 621
616 626
617 618
617 619
617 620
618 630
619 620
619 621
620 625
621 655
622 623
622 624
623 635
624 641
